30
0 1 0.75 0.18
0 2 0.57 0.13
0 3 0.54 0.02
0 4 0.53 0.08
0 5 0.75 0.1
0 6 0.36 0.0
0 7 0.72 0.14
0 8 0.88 0.27
0 9 0.38 0.29
0 10 0.73 0.24
0 11 0.71 0.04
0 12 0.48 0.25
0 13 0.54 0.1
0 14 0.66 0.27
0 15 0.4 0.16
0 16 0.66 0.32
0 17 0.76 0.2
0 18 0.59 0.22
0 19 0.45 0.14
0 20 0.38 0.22
0 21 0.34 0.22
0 22 0.52 0.15
0 23 0.38 0.13
0 24 0.49 0.27
0 25 0.23 0.2
0 26 0.52 0.06
0 27 0.52 0.28
0 28 0.4 0.22
0 29 0.42 0.17
1 2 0.61 0.14
1 3 0.36 0.2
1 4 0.61 0.17
1 5 0.31 0.17
1 6 0.4 0.18
1 7 0.49 0.27
1 8 0.27 0.27
1 9 0.58 0.3
1 10 0.45 0.24
1 11 0.62 0.22
1 12 0.54 0.22
1 13 0.52 0.17
1 14 0.58 0.28
1 15 0.48 0.21
1 16 0.69 0.2
1 17 0.41 0.33
1 18 0.22 0.18
1 19 0.59 0.04
1 20 0.37 0.25
1 21 0.64 0.14
1 22 0.52 0.1
1 23 0.54 0.22
1 24 0.65 0.24
1 25 0.58 0.31
1 26 0.68 0.12
1 27 0.41 0.32
1 28 0.54 0.14
1 29 0.61 0.08
2 3 0.55 0.15
2 4 0.22 0.1
2 5 0.46 0.23
2 6 0.54 0.13
2 7 0.46 0.27
2 8 0.42 0.34
2 9 0.7 0.36
2 10 0.57 0.28
2 11 0.5 0.17
2 12 0.48 0.28
2 13 0.36 0.23
2 14 0.75 0.31
2 15 0.35 0.2
2 16 0.49 0.34
2 17 0.45 0.24
2 18 0.53 0.29
2 19 0.16 0.1
2 20 0.5 0.3
2 21 0.5 0.28
2 22 0.46 0.1
2 23 0.36 0.26
2 24 0.64 0.33
2 25 0.5 0.21
2 26 0.25 0.18
2 27 0.51 0.36
2 28 0.63 0.18
2 29 0.46 0.12
3 4 0.33 0.1
3 5 0.67 0.12
3 6 0.54 0.02
3 7 0.52 0.12
3 8 0.63 0.25
3 9 0.72 0.31
3 10 0.79 0.26
3 11 0.76 0.06
3 12 0.65 0.27
3 13 0.54 0.12
3 14 0.54 0.29
3 15 0.46 0.18
3 16 0.55 0.33
3 17 0.29 0.18
3 18 0.58 0.24
3 19 0.71 0.16
3 20 0.48 0.24
3 21 0.73 0.24
3 22 0.62 0.13
3 23 0.55 0.15
3 24 0.75 0.25
3 25 0.67 0.2
3 26 0.68 0.08
3 27 0.46 0.3
3 28 0.55 0.21
3 29 0.52 0.15
4 5 0.68 0.18
4 6 0.36 0.08
4 7 0.68 0.22
4 8 0.64 0.35
4 9 0.52 0.26
4 10 0.46 0.25
4 11 0.72 0.12
4 12 0.68 0.24
4 13 0.57 0.18
4 14 0.53 0.21
4 15 0.13 0.1
4 16 0.54 0.34
4 17 0.62 0.28
4 18 0.7 0.26
4 19 0.38 0.2
4 20 0.62 0.2
4 21 0.72 0.3
4 22 0.54 0.11
4 23 0.22 0.16
4 24 0.5 0.32
4 25 0.34 0.26
4 26 0.35 0.14
4 27 0.44 0.34
4 28 0.41 0.15
4 29 0.64 0.09
5 6 0.71 0.1
5 7 0.64 0.24
5 8 0.58 0.33
5 9 0.66 0.23
5 10 0.57 0.34
5 11 0.55 0.14
5 12 0.67 0.35
5 13 0.32 0.18
5 14 0.8 0.33
5 15 0.64 0.22
5 16 0.65 0.37
5 17 0.72 0.3
5 18 0.5 0.31
5 19 0.35 0.18
5 20 0.62 0.32
5 21 0.54 0.18
5 22 0.64 0.25
5 23 0.66 0.23
5 24 0.38 0.32
5 25 0.64 0.3
5 26 0.44 0.16
5 27 0.6 0.18
5 28 0.8 0.31
5 29 0.54 0.25
6 7 0.57 0.14
6 8 0.67 0.27
6 9 0.51 0.29
6 10 0.79 0.24
6 11 0.87 0.04
6 12 0.7 0.25
6 13 0.58 0.1
6 14 0.7 0.27
6 15 0.49 0.16
6 16 0.65 0.32
6 17 0.56 0.2
6 18 0.62 0.22
6 19 0.38 0.14
6 20 0.72 0.22
6 21 0.55 0.22
6 22 0.53 0.15
6 23 0.58 0.13
6 24 0.48 0.27
6 25 0.59 0.2
6 26 0.44 0.06
6 27 0.73 0.28
6 28 0.76 0.22
6 29 0.63 0.17
7 8 0.76 0.13
7 9 0.56 0.23
7 10 0.74 0.38
7 11 0.44 0.18
7 12 0.62 0.31
7 13 0.74 0.24
7 14 0.41 0.29
7 15 0.66 0.18
7 16 0.58 0.21
7 17 0.68 0.3
7 18 0.64 0.19
7 19 0.54 0.28
7 20 0.45 0.29
7 21 0.58 0.36
7 22 0.63 0.25
7 23 0.76 0.27
7 24 0.32 0.13
7 25 0.54 0.25
7 26 0.63 0.2
7 27 0.45 0.38
7 28 0.44 0.24
7 29 0.7 0.27
8 9 0.56 0.1
8 10 0.53 0.36
8 11 0.88 0.31
8 12 0.5 0.34
8 13 0.73 0.25
8 14 0.42 0.22
8 15 0.56 0.26
8 16 0.59 0.34
8 17 0.68 0.37
8 18 0.49 0.32
8 19 0.53 0.24
8 20 0.64 0.38
8 21 0.81 0.26
8 22 0.54 0.28
8 23 0.64 0.21
8 24 0.68 0.26
8 25 0.68 0.33
8 26 0.44 0.32
8 27 0.68 0.42
8 28 0.74 0.36
8 29 0.54 0.3
9 10 0.86 0.26
9 11 0.84 0.3
9 12 0.68 0.24
9 13 0.42 0.35
9 14 0.79 0.12
9 15 0.65 0.16
9 16 0.56 0.3
9 17 0.62 0.45
9 18 0.7 0.39
9 19 0.55 0.26
9 20 0.64 0.28
9 21 0.4 0.29
9 22 0.62 0.35
9 23 0.49 0.31
9 24 0.53 0.35
9 25 0.61 0.23
9 26 0.46 0.23
9 27 0.9 0.33
9 28 0.6 0.28
9 29 0.52 0.33
10 11 0.57 0.28
10 12 0.73 0.15
10 13 0.61 0.22
10 14 0.46 0.27
10 15 0.33 0.24
10 16 0.74 0.2
10 17 0.7 0.37
10 18 0.4 0.24
10 19 0.41 0.28
10 20 0.7 0.11
10 21 0.48 0.18
10 22 0.4 0.18
10 23 0.47 0.27
10 24 0.56 0.3
10 25 0.54 0.31
10 26 0.5 0.3
10 27 0.76 0.25
10 28 0.6 0.22
10 29 0.5 0.16
11 12 0.8 0.29
11 13 0.54 0.14
11 14 0.54 0.31
11 15 0.59 0.2
11 16 0.57 0.36
11 17 0.72 0.24
11 18 0.68 0.18
11 19 0.6 0.18
11 20 0.64 0.26
11 21 0.76 0.26
11 22 0.67 0.19
11 23 0.7 0.17
11 24 0.54 0.24
11 25 0.54 0.22
11 26 0.69 0.1
11 27 0.54 0.28
11 28 0.31 0.18
11 29 0.57 0.21
12 13 0.48 0.31
12 14 0.67 0.12
12 15 0.63 0.23
12 16 0.3 0.1
12 17 0.57 0.35
12 18 0.69 0.3
12 19 0.32 0.18
12 20 0.17 0.04
12 21 0.64 0.33
12 22 0.39 0.27
12 23 0.71 0.36
12 24 0.7 0.32
12 25 0.64 0.2
12 26 0.41 0.26
12 27 0.38 0.25
12 28 0.56 0.19
12 29 0.49 0.25
13 14 0.52 0.37
13 15 0.44 0.26
13 16 0.53 0.22
13 17 0.66 0.16
13 18 0.3 0.13
13 19 0.2 0.13
13 20 0.54 0.32
13 21 0.77 0.2
13 22 0.6 0.25
13 23 0.72 0.23
13 24 0.62 0.19
13 25 0.58 0.3
13 26 0.29 0.16
13 27 0.55 0.28
13 28 0.57 0.24
13 29 0.53 0.25
14 15 0.4 0.11
14 16 0.56 0.22
14 17 0.76 0.33
14 18 0.36 0.32
14 19 0.71 0.29
14 20 0.5 0.16
14 21 0.56 0.41
14 22 0.68 0.31
14 23 0.5 0.37
14 24 0.73 0.38
14 25 0.51 0.27
14 26 0.62 0.21
14 27 0.44 0.21
14 28 0.52 0.23
14 29 0.68 0.29
15 16 0.54 0.33
15 17 0.7 0.36
15 18 0.57 0.23
15 19 0.31 0.18
15 20 0.65 0.27
15 21 0.6 0.33
15 22 0.56 0.2
15 23 0.35 0.26
15 24 0.47 0.28
15 25 0.21 0.16
15 26 0.22 0.1
15 27 0.57 0.24
15 28 0.28 0.12
15 29 0.54 0.18
16 17 0.79 0.38
16 18 0.7 0.33
16 19 0.33 0.24
16 20 0.47 0.14
16 21 0.73 0.34
16 22 0.46 0.29
16 23 0.76 0.42
16 24 0.42 0.3
16 25 0.5 0.3
16 26 0.42 0.26
16 27 0.62 0.35
16 28 0.26 0.22
16 29 0.52 0.28
17 18 0.58 0.29
17 19 0.46 0.29
17 20 0.6 0.31
17 21 0.44 0.32
17 22 0.74 0.31
17 23 0.56 0.33
17 24 0.46 0.35
17 25 0.72 0.38
17 26 0.55 0.26
17 27 0.61 0.12
17 28 0.79 0.39
17 29 0.78 0.33
18 19 0.37 0.22
18 20 0.58 0.26
18 21 0.5 0.21
18 22 0.49 0.19
18 23 0.64 0.26
18 24 0.43 0.06
18 25 0.36 0.18
18 26 0.46 0.28
18 27 0.63 0.4
18 28 0.65 0.11
18 29 0.39 0.17
19 20 0.34 0.21
19 21 0.57 0.18
19 22 0.43 0.14
19 23 0.52 0.18
19 24 0.64 0.28
19 25 0.38 0.29
19 26 0.09 0.08
19 27 0.35 0.33
19 28 0.59 0.18
19 29 0.53 0.12
20 21 0.47 0.29
20 22 0.38 0.23
20 23 0.66 0.35
20 24 0.69 0.32
20 25 0.54 0.2
20 26 0.43 0.28
20 27 0.55 0.29
20 28 0.45 0.15
20 29 0.48 0.21
21 22 0.77 0.24
21 23 0.57 0.35
21 24 0.76 0.27
21 25 0.57 0.17
21 26 0.48 0.26
21 27 0.55 0.36
21 28 0.47 0.28
21 29 0.73 0.22
22 23 0.32 0.27
22 24 0.31 0.24
22 25 0.55 0.26
22 26 0.34 0.21
22 27 0.6 0.41
22 28 0.36 0.08
22 29 0.1 0.02
23 24 0.54 0.2
23 25 0.5 0.19
23 26 0.57 0.19
23 27 0.66 0.41
23 28 0.63 0.31
23 29 0.42 0.25
24 25 0.26 0.12
24 26 0.55 0.33
24 27 0.52 0.46
24 28 0.57 0.17
24 29 0.41 0.23
25 26 0.29 0.21
25 27 0.37 0.34
25 28 0.34 0.24
25 29 0.59 0.24
26 27 0.44 0.34
26 28 0.5 0.22
26 29 0.44 0.2
27 28 0.5 0.33
27 29 0.68 0.39
28 29 0.26 0.06
